
Gurobi 9.0.1 (linux64) logging started Thu Apr 30 17:34:04 2020

Gurobi Optimizer version 9.0.1 build v9.0.1rc0 (linux64)
Optimize a model with 13307 rows, 12060 columns and 202950 nonzeros
Model fingerprint: 0x5a355bec
Variable types: 0 continuous, 12060 integer (12032 binary)
Coefficient statistics:
  Matrix range     [1e+00, 1e+01]
  Objective range  [7e+00, 1e+02]
  Bounds range     [1e+00, 1e+00]
  RHS range        [1e+00, 1e+00]

User MIP start produced solution with objective 1048 (0.32s)
Loaded user MIP start with objective 1048

Presolve removed 5054 rows and 3900 columns
Presolve time: 3.57s
Presolved: 8253 rows, 8160 columns, 165405 nonzeros
Variable types: 0 continuous, 8160 integer (8134 binary)

Root simplex log...

Iteration    Objective       Primal Inf.    Dual Inf.      Time
    1849    5.8050009e+02   7.345393e+03   0.000000e+00      5s
    4749    5.9979787e+02   2.770320e+03   0.000000e+00     10s
    7583    6.1067887e+02   2.663720e+03   0.000000e+00     15s
    9354    6.1460990e+02   3.911236e+02   0.000000e+00     20s
   10650    6.1603616e+02   0.000000e+00   0.000000e+00     24s

Root relaxation: objective 6.160362e+02, 10650 iterations, 19.86 seconds

    Nodes    |    Current Node    |     Objective Bounds      |     Work
 Expl Unexpl |  Obj  Depth IntInf | Incumbent    BestBd   Gap | It/Node Time

     0     0  616.03616    0 1714 1048.00000  616.03616  41.2%     -   25s
     0     0  653.49463    0 1755 1048.00000  653.49463  37.6%     -   59s
     0     0  654.84242    0 1745 1048.00000  654.84242  37.5%     -   66s
     0     0  654.87322    0 1754 1048.00000  654.87322  37.5%     -   67s
     0     0  654.87748    0 1751 1048.00000  654.87748  37.5%     -   68s
     0     0  674.80447    0 1790 1048.00000  674.80447  35.6%     -   99s
     0     0  675.38674    0 1795 1048.00000  675.38674  35.6%     -  105s
     0     0  675.47766    0 1790 1048.00000  675.47766  35.5%     -  107s
     0     0  675.48288    0 1803 1048.00000  675.48288  35.5%     -  108s
     0     0  685.09216    0 1803 1048.00000  685.09216  34.6%     -  144s
     0     0  685.68872    0 1796 1048.00000  685.68872  34.6%     -  152s
     0     0  685.70509    0 1784 1048.00000  685.70509  34.6%     -  153s
     0     0  690.28498    0 1831 1048.00000  690.28498  34.1%     -  187s
     0     0  690.70277    0 1823 1048.00000  690.70277  34.1%     -  195s
     0     0  690.83942    0 1818 1048.00000  690.83942  34.1%     -  199s
     0     0  690.85920    0 1820 1048.00000  690.85920  34.1%     -  200s
     0     0  692.66421    0 1838 1048.00000  692.66421  33.9%     -  218s
     0     0  692.82866    0 1849 1048.00000  692.82866  33.9%     -  224s
     0     0  692.86551    0 1834 1048.00000  692.86551  33.9%     -  226s
     0     0  692.87724    0 1845 1048.00000  692.87724  33.9%     -  227s
     0     0  693.57193    0 1840 1048.00000  693.57193  33.8%     -  238s
     0     0  693.70633    0 1833 1048.00000  693.70633  33.8%     -  244s
     0     0  693.72996    0 1847 1048.00000  693.72996  33.8%     -  246s
     0     0  694.44098    0 1881 1048.00000  694.44098  33.7%     -  257s
     0     0  694.52403    0 1880 1048.00000  694.52403  33.7%     -  263s
     0     0  694.53950    0 1884 1048.00000  694.53950  33.7%     -  264s
     0     0  695.13436    0 1857 1048.00000  695.13436  33.7%     -  273s
     0     0  695.23216    0 1853 1048.00000  695.23216  33.7%     -  278s
     0     0  695.24748    0 1864 1048.00000  695.24748  33.7%     -  280s
     0     0  695.61346    0 1871 1048.00000  695.61346  33.6%     -  288s
     0     0  695.66093    0 1873 1048.00000  695.66093  33.6%     -  293s
     0     0  695.67194    0 1871 1048.00000  695.67194  33.6%     -  295s
     0     0  696.03099    0 1864 1048.00000  696.03099  33.6%     -  303s
     0     0  696.14826    0 1891 1048.00000  696.14826  33.6%     -  311s
     0     0  696.18582    0 1899 1048.00000  696.18582  33.6%     -  313s
     0     0  696.19620    0 1900 1048.00000  696.19620  33.6%     -  314s
     0     0  697.18248    0 1883 1048.00000  697.18248  33.5%     -  326s
     0     0  697.38418    0 1902 1048.00000  697.38418  33.5%     -  334s
     0     0  697.40917    0 1905 1048.00000  697.40917  33.5%     -  336s
     0     0  697.80328    0 1895 1048.00000  697.80328  33.4%     -  345s
     0     0  697.85180    0 1892 1048.00000  697.85180  33.4%     -  349s
     0     0  697.86334    0 1897 1048.00000  697.86334  33.4%     -  351s
     0     0  698.61832    0 1900 1048.00000  698.61832  33.3%     -  361s
     0     0  698.81080    0 1908 1048.00000  698.81080  33.3%     -  372s
     0     0  698.83690    0 1905 1048.00000  698.83690  33.3%     -  374s
     0     0  699.17557    0 1909 1048.00000  699.17557  33.3%     -  382s
     0     0  699.23065    0 1896 1048.00000  699.23065  33.3%     -  387s
     0     0  699.25774    0 1902 1048.00000  699.25774  33.3%     -  389s
     0     0  700.49118    0 1872 1048.00000  700.49118  33.2%     -  406s
     0     0  700.65047    0 1870 1048.00000  700.65047  33.1%     -  412s
     0     0  700.68553    0 1877 1048.00000  700.68553  33.1%     -  414s
     0     0  700.69423    0 1875 1048.00000  700.69423  33.1%     -  415s
     0     0  701.01539    0 1855 1048.00000  701.01539  33.1%     -  422s
     0     0  701.10874    0 1865 1048.00000  701.10874  33.1%     -  428s
     0     0  701.12267    0 1871 1048.00000  701.12267  33.1%     -  429s
     0     0  701.73154    0 1877 1048.00000  701.73154  33.0%     -  439s
     0     0  701.87134    0 1876 1048.00000  701.87134  33.0%     -  444s
     0     0  701.90393    0 1873 1048.00000  701.90393  33.0%     -  446s
     0     0  702.07976    0 1890 1048.00000  702.07976  33.0%     -  452s
     0     0  702.07976    0 1890 1048.00000  702.07976  33.0%     -  458s
     0     2  702.08871    0 1889 1048.00000  702.08871  33.0%     -  523s
     1     3  702.85057    1 1866 1048.00000  702.08871  33.0%  1830  531s
     2     4  740.66588    1 1612 1048.00000  702.85057  32.9% 19853  701s
     3     5  704.36679    2 1853 1048.00000  702.85057  32.9% 14146  715s
     4     6  716.52721    2 1741 1048.00000  704.36825  32.8% 13767  775s
     5     7  708.81758    3 1868 1048.00000  704.36825  32.8% 11914  797s
     6     8  708.00521    3 1759 1048.00000  708.00521  32.4% 11770  841s
     7     9  735.87354    4 1581 1048.00000  708.00521  32.4% 12707  912s
     8    10  708.50373    4 1765 1048.00000  708.50373  32.4% 11338  918s
     9    11  736.90690    5 1552 1048.00000  708.50373  32.4% 11417  958s
    10    12  708.81326    5 1743 1048.00000  708.81326  32.4% 10419  963s
    11    13  709.10815    6 1761 1048.00000  708.81326  32.4%  9618  969s
    12    14  735.13448    6 1581 1048.00000  708.81758  32.4%  9707 1003s
    13    15  709.28936    7 1762 1048.00000  708.81758  32.4%  9035 1006s
    14    16  735.99077    7 1615 1048.00000  708.81758  32.4%  9340 1049s
    15    17  709.32199    8 1748 1048.00000  708.81758  32.4%  8750 1050s
    16    18  731.33842    8 1636 1048.00000  708.81758  32.4%  8822 1083s
    17    19  709.74584    9 1751 1048.00000  708.81758  32.4%  8387 1088s
    18    20  735.00965    9 1580 1048.00000  708.81758  32.4%  8588 1127s
    19    21  710.35207   10 1727 1048.00000  708.81758  32.4%  8226 1132s
    20    22  734.24743   10 1588 1048.00000  708.81758  32.4%  8462 1172s
    21    23  710.64475   11 1733 1048.00000  708.81758  32.4%  8096 1175s
    22    24  734.15977   11 1571 1048.00000  708.81758  32.4%  8343 1229s
    23    25  713.23215   12 1731 1048.00000  708.81758  32.4%  8125 1240s
    24    26  721.04814   12 1630 1048.00000  708.81758  32.4%  8104 1267s
    25    27  714.61366   13 1731 1048.00000  708.81758  32.4%  7851 1275s
    26    28  729.20905   13 1589 1048.00000  708.81758  32.4%  8107 1334s
    27    29  716.24650   14 1723 1048.00000  708.81758  32.4%  7925 1353s
    28    30  745.75170   14 1568 1048.00000  708.81758  32.4%  7996 1384s
    29    31  717.58080   15 1714 1048.00000  708.81758  32.4%  7781 1391s
    30    32  739.39389   15 1603 1048.00000  708.81758  32.4%  8024 1445s
    31    33  720.39286   16 1679 1048.00000  708.81758  32.4%  7926 1459s
    32    34  737.37747   16 1599 1048.00000  708.81758  32.4%  8027 1493s
    33    35  720.97296   17 1668 1048.00000  708.81758  32.4%  7820 1497s
    34    36  736.55708   17 1563 1048.00000  708.81758  32.4%  8363 1596s
    35    37  721.20640   18 1685 1048.00000  708.81758  32.4%  8166 1601s
    36    38  753.42550   18 1534 1048.00000  708.81758  32.4%  8273 1640s
    37    39  721.67073   19 1656 1048.00000  708.81758  32.4%  8096 1645s
    38    40  782.88595   19 1535 1048.00000  708.81758  32.4%  8232 1688s
    39    41  721.83675   20 1627 1048.00000  708.81758  32.4%  8035 1690s
    40    42  751.04453   20 1466 1048.00000  708.81758  32.4%  8231 1750s
    41    43  722.36724   21 1649 1048.00000  708.81758  32.4%  8082 1757s
    42    44  750.33296   21 1520 1048.00000  708.81758  32.4%  8186 1796s
    43    45  725.24963   22 1641 1048.00000  708.81758  32.4%  8063 1829s
    44    46  738.77656   22 1588 1048.00000  708.81758  32.4%  8124 1870s
    45    47  743.48264   23 1551 1048.00000  708.81758  32.4%  8192 1905s
    46    48  741.51565   23 1568 1048.00000  708.81758  32.4%  8402 1970s
    47    49  764.09782   24 1460 1048.00000  708.81758  32.4%  8416 1994s
    48    50  743.00811   24 1572 1048.00000  708.81758  32.4%  8291 2000s
    50    52  744.12511   26 1550 1048.00000  708.81758  32.4%  8021 2009s
    51    53  792.29680   27 1417 1048.00000  708.81758  32.4%  8076 2039s
    52    54  744.25002   27 1550 1048.00000  708.81758  32.4%  7927 2040s
    53    55  767.98429   28 1445 1048.00000  708.81758  32.4%  8035 2084s
    54    56  745.31945   28 1541 1048.00000  708.81758  32.4%  7926 2097s
    55    57  745.87427   29 1560 1048.00000  708.81758  32.4%  7813 2102s
    56    58  816.76588   30 1430 1048.00000  708.81758  32.4%  7880 2133s
    57    59  746.25835   30 1555 1048.00000  708.81758  32.4%  7755 2135s
    58    60  788.71909   31 1409 1048.00000  708.81758  32.4%  7882 2184s
    59    61  748.79220   31 1560 1048.00000  708.81758  32.4%  7796 2191s
    60    62  750.75762   32 1558 1048.00000  708.81758  32.4%  7716 2199s
    61    63  775.60273   32 1333 1048.00000  708.81758  32.4%  7765 2228s
    62    64  751.34584   33 1544 1048.00000  708.81758  32.4%  7661 2233s
    63    65  812.07209   33 1478 1048.00000  708.81758  32.4%  7872 2307s
    64    66  751.77284   34 1554 1048.00000  708.81758  32.4%  7763 2310s
    65    67  778.41294   34 1392 1048.00000  708.81758  32.4%  7771 2333s
    66    68  752.32814   35 1529 1048.00000  708.81758  32.4%  7679 2338s
    67    69  820.09662   35 1452 1048.00000  708.81758  32.4%  7736 2368s
    68    70  754.09451   36 1525 1048.00000  708.81758  32.4%  7663 2375s
    69    71  778.31569   36 1464 1048.00000  708.81758  32.4%  7716 2407s
    70    72  756.63379   37 1535 1048.00000  708.81758  32.4%  7632 2413s
    71    73  788.32054   37 1370 1048.00000  708.81758  32.4%  7698 2455s
    72    74  757.02984   38 1544 1048.00000  708.81758  32.4%  7614 2511s
    73    75  780.03028   38 1419 1048.00000  708.81758  32.4%  7634 2539s
    74    76  758.79011   39 1545 1048.00000  708.81758  32.4%  7553 2545s
    75    77  786.37131   39 1428 1048.00000  708.81758  32.4%  7617 2589s
    76    78  760.60378   40 1540 1048.00000  708.81758  32.4%  7559 2597s
    77    79  777.18976   40 1426 1048.00000  708.81758  32.4%  7552 2617s
    78    80  762.38854   41 1509 1048.00000  708.81758  32.4%  7489 2624s
    79    81  784.51046   41 1417 1048.00000  708.81758  32.4%  7494 2645s
    80    82  763.49454   42 1534 1048.00000  708.81758  32.4%  7423 2651s
    81    83  788.97601   42 1428 1048.00000  708.81758  32.4%  7543 2714s
    82    84  764.28217   43 1560 1048.00000  708.81758  32.4%  7476 2719s
    83    85  785.73981   43 1420 1048.00000  708.81758  32.4%  7493 2742s
    84    86  764.91497   44 1549 1048.00000  708.81758  32.4%  7425 2747s
    85    87  797.93946   44 1436 1048.00000  708.81758  32.4%  7451 2773s
    86    88  766.14925   45 1542 1048.00000  708.81758  32.4%  7389 2778s
    87    89  792.50002   45 1411 1048.00000  708.81758  32.4%  7422 2805s
    88    90  795.09552   46 1415 1048.00000  708.81758  32.4%  7475 2847s
    89    91  770.29213   46 1523 1048.00000  708.81758  32.4%  7430 2856s
    90    92  774.79866   47 1505 1048.00000  708.81758  32.4%  7392 2867s
    91    93  811.30419   48 1346 1048.00000  708.81758  32.4%  7420 2894s
    92    94  776.94220   48 1516 1048.00000  708.81758  32.4%  7358 2900s
    93    95  803.69130   49 1406 1048.00000  708.81758  32.4%  7443 2948s
    94    96  780.14255   49 1466 1048.00000  708.81758  32.4%  7408 2958s
    95    97  781.04682   50 1480 1048.00000  708.81758  32.4%  7351 2963s
    96    98  817.27611   51 1377 1048.00000  708.81758  32.4%  7367 2983s
    97    99  789.04767   51 1511 1048.00000  708.81758  32.4%  7346 2997s
    98   100  792.05728   52 1481 1048.00000  708.81758  32.4%  7304 3005s
    99   101  823.84064   53 1345 1048.00000  708.81758  32.4%  7322 3031s
   100   102  793.59302   53 1496 1048.00000  708.81758  32.4%  7276 3041s
   101   103  860.66725   54 1439 1048.00000  708.81758  32.4%  7384 3105s
   103   105  824.51600   55 1333 1048.00000  708.81758  32.4%  7340 3133s
   104   106  794.95149   55 1467 1048.00000  708.81758  32.4%  7281 3136s
   105   107  856.75766   56 1434 1048.00000  708.81758  32.4%  7317 3168s
   106   108  799.08827   56 1432 1048.00000  708.81758  32.4%  7277 3177s
   107   109  846.83961   57 1273 1048.00000  708.81758  32.4%  7277 3195s
   108   110  802.78747   57 1474 1048.00000  708.81758  32.4%  7250 3236s
   109   111  855.67763   58 1358 1048.00000  708.81758  32.4%  7269 3260s
   110   112  805.48380   58 1468 1048.00000  708.81758  32.4%  7222 3267s
   111   113  871.58390   59 1403 1048.00000  708.81758  32.4%  7363 3346s
   112   114  809.88152   59 1475 1048.00000  708.81758  32.4%  7327 3354s
   113   115  811.71751   60 1438 1048.00000  708.81758  32.4%  7284 3362s
   114   116  834.19352   61 1370 1048.00000  708.81758  32.4%  7307 3387s
   115   117  831.61331   61 1462 1048.00000  708.81758  32.4%  7301 3406s
   116   118  833.15598   62 1465 1048.00000  708.81758  32.4%  7257 3411s
   117   119  861.37114   63 1347 1048.00000  708.81758  32.4%  7253 3432s
   118   120  834.70490   63 1409 1048.00000  708.81758  32.4%  7210 3438s
   119   121  838.85781   64 1443 1048.00000  708.81758  32.4%  7191 3451s
   120   122  846.14005   65 1387 1048.00000  708.81758  32.4%  7172 3464s
   121   123  857.20312   66 1402 1048.00000  708.81758  32.4%  7169 3484s
   122   124  892.42771   67 1328 1048.00000  708.81758  32.4%  7186 3507s
   123   125  858.25746   67 1368 1048.00000  708.81758  32.4%  7150 3513s
   124   126  863.33671   68 1404 1048.00000  708.81758  32.4%  7122 3522s
   125   127  872.05915   68 1398 1048.00000  708.81758  32.4%  7122 3539s
   126   128  863.69478   69 1385 1048.00000  708.81758  32.4%  7075 3541s
   127   129  864.78661   70 1381 1048.00000  708.81758  32.4%  7032 3545s
   128   130  866.00537   71 1361 1048.00000  708.81758  32.4%  6995 3551s
   129   131  914.06920   72 1283 1048.00000  708.81758  32.4%  6995 3568s
   130   132  871.91097   72 1359 1048.00000  708.81758  32.4%  6972 3579s

Cutting planes:
  Cover: 1
  MIR: 55
  StrongCG: 9
  Zero half: 42
  Mod-K: 7
  RLT: 1039

Explored 131 nodes (987667 simplex iterations) in 3600.01 seconds
Thread count was 1 (of 40 available processors)

Solution count 1: 1048 

Time limit reached
Best objective 1.048000000000e+03, best bound 7.090000000000e+02, gap 32.3473%

User-callback calls 38300, time in user-callback 0.07 sec
